p cnf 200 1110
-101 48 0
-101 -9 0
-101 -1 0
-101 -62 0
-101 -23 0
-101 26 0
-101 91 0
-101 52 0
-101 43 0
-101 20 0
101 -48 9 1 62 23 -26 -91 -52 -43 -20 0
-102 -95 0
-102 -83 0
-102 -4 0
-102 -19 0
-102 -74 0
-102 -62 0
-102 99 0
-102 81 0
-102 -10 0
-102 -60 0
102 95 83 4 19 74 62 -99 -81 10 60 0
-103 43 0
-103 -19 0
-103 72 0
-103 49 0
-103 -29 0
-103 86 0
-103 100 0
-103 -20 0
-103 -27 0
-103 59 0
103 -43 19 -72 -49 29 -86 -100 20 27 -59 0
-104 52 0
-104 -90 0
-104 -68 0
-104 -6 0
-104 -77 0
-104 45 0
-104 97 0
-104 99 0
-104 -75 0
-104 41 0
104 -52 90 68 6 77 -45 -97 -99 75 -41 0
-105 41 0
-105 32 0
-105 13 0
-105 46 0
-105 -49 0
-105 45 0
-105 50 0
-105 -55 0
-105 73 0
-105 25 0
105 -41 -32 -13 -46 49 -45 -50 55 -73 -25 0
-106 -17 0
-106 9 0
-106 57 0
-106 55 0
-106 45 0
-106 -37 0
-106 92 0
-106 -46 0
-106 -97 0
-106 33 0
106 17 -9 -57 -55 -45 37 -92 46 97 -33 0
-107 -36 0
-107 -47 0
-107 -69 0
-107 -62 0
-107 -66 0
-107 98 0
-107 38 0
-107 -39 0
-107 -82 0
-107 29 0
107 36 47 69 62 66 -98 -38 39 82 -29 0
-108 81 0
-108 44 0
-108 25 0
-108 59 0
-108 -16 0
-108 -7 0
-108 -70 0
-108 -34 0
-108 -23 0
-108 19 0
108 -81 -44 -25 -59 16 7 70 34 23 -19 0
-109 65 0
-109 86 0
-109 36 0
-109 -31 0
-109 -78 0
-109 55 0
-109 64 0
-109 -7 0
-109 46 0
-109 -5 0
109 -65 -86 -36 31 78 -55 -64 7 -46 5 0
-110 -43 0
-110 11 0
-110 -35 0
-110 7 0
-110 -78 0
-110 -21 0
-110 -16 0
-110 59 0
-110 48 0
-110 -46 0
110 43 -11 35 -7 78 21 16 -59 -48 46 0
101 102 103 104 105 106 107 108 109 110 0
-111 19 0
-111 -64 0
-111 -3 0
-111 -90 0
-111 10 0
-111 -6 0
-111 -13 0
-111 94 0
-111 81 0
-111 -59 0
111 -19 64 3 90 -10 6 13 -94 -81 59 0
-112 -33 0
-112 56 0
-112 63 0
-112 -50 0
-112 -100 0
-112 29 0
-112 97 0
-112 -87 0
-112 -83 0
-112 74 0
112 33 -56 -63 50 100 -29 -97 87 83 -74 0
-113 15 0
-113 -44 0
-113 84 0
-113 5 0
-113 37 0
-113 22 0
-113 18 0
-113 96 0
-113 11 0
-113 -47 0
113 -15 44 -84 -5 -37 -22 -18 -96 -11 47 0
-114 -100 0
-114 99 0
-114 69 0
-114 70 0
-114 -73 0
-114 -78 0
-114 39 0
-114 54 0
-114 -21 0
-114 76 0
114 100 -99 -69 -70 73 78 -39 -54 21 -76 0
-115 -33 0
-115 17 0
-115 -91 0
-115 -97 0
-115 -24 0
-115 -27 0
-115 -40 0
-115 44 0
-115 -59 0
-115 60 0
115 33 -17 91 97 24 27 40 -44 59 -60 0
-116 54 0
-116 1 0
-116 -34 0
-116 72 0
-116 -14 0
-116 24 0
-116 41 0
-116 78 0
-116 8 0
-116 3 0
116 -54 -1 34 -72 14 -24 -41 -78 -8 -3 0
-117 34 0
-117 64 0
-117 -18 0
-117 91 0
-117 -22 0
-117 28 0
-117 45 0
-117 -99 0
-117 68 0
-117 -90 0
117 -34 -64 18 -91 22 -28 -45 99 -68 90 0
-118 -26 0
-118 44 0
-118 -69 0
-118 68 0
-118 62 0
-118 -75 0
-118 -100 0
-118 88 0
-118 -22 0
-118 45 0
118 26 -44 69 -68 -62 75 100 -88 22 -45 0
-119 27 0
-119 96 0
-119 14 0
-119 -86 0
-119 20 0
-119 -73 0
-119 -53 0
-119 -52 0
-119 -65 0
-119 75 0
119 -27 -96 -14 86 -20 73 53 52 65 -75 0
-120 95 0
-120 96 0
-120 -91 0
-120 -33 0
-120 -10 0
-120 -14 0
-120 54 0
-120 99 0
-120 -18 0
-120 -63 0
120 -95 -96 91 33 10 14 -54 -99 18 63 0
111 112 113 114 115 116 117 118 119 120 0
-121 13 0
-121 74 0
-121 15 0
-121 58 0
-121 -26 0
-121 -31 0
-121 60 0
-121 -56 0
-121 18 0
-121 -21 0
121 -13 -74 -15 -58 26 31 -60 56 -18 21 0
-122 74 0
-122 80 0
-122 -25 0
-122 13 0
-122 14 0
-122 -51 0
-122 23 0
-122 -86 0
-122 -90 0
-122 -57 0
122 -74 -80 25 -13 -14 51 -23 86 90 57 0
-123 -61 0
-123 15 0
-123 78 0
-123 22 0
-123 41 0
-123 6 0
-123 71 0
-123 -12 0
-123 29 0
-123 86 0
123 61 -15 -78 -22 -41 -6 -71 12 -29 -86 0
-124 -59 0
-124 -56 0
-124 -87 0
-124 -41 0
-124 -15 0
-124 -16 0
-124 94 0
-124 34 0
-124 63 0
-124 -45 0
124 59 56 87 41 15 16 -94 -34 -63 45 0
-125 11 0
-125 -4 0
-125 53 0
-125 26 0
-125 -48 0
-125 -57 0
-125 -82 0
-125 54 0
-125 85 0
-125 -67 0
125 -11 4 -53 -26 48 57 82 -54 -85 67 0
-126 6 0
-126 -54 0
-126 -45 0
-126 -38 0
-126 84 0
-126 88 0
-126 -53 0
-126 -47 0
-126 -27 0
-126 -97 0
126 -6 54 45 38 -84 -88 53 47 27 97 0
-127 9 0
-127 10 0
-127 -17 0
-127 -4 0
-127 16 0
-127 -68 0
-127 -31 0
-127 7 0
-127 -72 0
-127 -61 0
127 -9 -10 17 4 -16 68 31 -7 72 61 0
-128 55 0
-128 81 0
-128 -43 0
-128 -3 0
-128 17 0
-128 -90 0
-128 83 0
-128 -65 0
-128 98 0
-128 63 0
128 -55 -81 43 3 -17 90 -83 65 -98 -63 0
-129 -38 0
-129 40 0
-129 91 0
-129 -52 0
-129 94 0
-129 69 0
-129 -58 0
-129 1 0
-129 -41 0
-129 -92 0
129 38 -40 -91 52 -94 -69 58 -1 41 92 0
-130 -35 0
-130 -68 0
-130 65 0
-130 -82 0
-130 72 0
-130 -30 0
-130 -85 0
-130 -31 0
-130 -41 0
-130 -81 0
130 35 68 -65 82 -72 30 85 31 41 81 0
121 122 123 124 125 126 127 128 129 130 0
-131 51 0
-131 -89 0
-131 -75 0
-131 -57 0
-131 40 0
-131 4 0
-131 -46 0
-131 83 0
-131 -69 0
-131 27 0
131 -51 89 75 57 -40 -4 46 -83 69 -27 0
-132 64 0
-132 -97 0
-132 98 0
-132 87 0
-132 69 0
-132 71 0
-132 60 0
-132 100 0
-132 59 0
-132 49 0
132 -64 97 -98 -87 -69 -71 -60 -100 -59 -49 0
-133 -30 0
-133 -83 0
-133 -82 0
-133 92 0
-133 -5 0
-133 -97 0
-133 -85 0
-133 24 0
-133 -67 0
-133 -6 0
133 30 83 82 -92 5 97 85 -24 67 6 0
-134 86 0
-134 64 0
-134 91 0
-134 -14 0
-134 -93 0
-134 33 0
-134 90 0
-134 -71 0
-134 -5 0
-134 41 0
134 -86 -64 -91 14 93 -33 -90 71 5 -41 0
-135 12 0
-135 56 0
-135 6 0
-135 -77 0
-135 -100 0
-135 -3 0
-135 -81 0
-135 35 0
-135 39 0
-135 87 0
135 -12 -56 -6 77 100 3 81 -35 -39 -87 0
-136 -30 0
-136 5 0
-136 -14 0
-136 38 0
-136 92 0
-136 -91 0
-136 79 0
-136 40 0
-136 11 0
-136 48 0
136 30 -5 14 -38 -92 91 -79 -40 -11 -48 0
-137 95 0
-137 82 0
-137 80 0
-137 -21 0
-137 -90 0
-137 -3 0
-137 5 0
-137 -72 0
-137 -16 0
-137 94 0
137 -95 -82 -80 21 90 3 -5 72 16 -94 0
-138 34 0
-138 -9 0
-138 93 0
-138 -45 0
-138 -40 0
-138 20 0
-138 78 0
-138 54 0
-138 33 0
-138 53 0
138 -34 9 -93 45 40 -20 -78 -54 -33 -53 0
-139 -66 0
-139 86 0
-139 -98 0
-139 -10 0
-139 85 0
-139 53 0
-139 51 0
-139 -40 0
-139 -100 0
-139 -43 0
139 66 -86 98 10 -85 -53 -51 40 100 43 0
-140 -90 0
-140 78 0
-140 14 0
-140 65 0
-140 -56 0
-140 28 0
-140 23 0
-140 41 0
-140 -49 0
-140 -68 0
140 90 -78 -14 -65 56 -28 -23 -41 49 68 0
131 132 133 134 135 136 137 138 139 140 0
-141 -1 0
-141 -81 0
-141 -21 0
-141 -45 0
-141 16 0
-141 -72 0
-141 -64 0
-141 -19 0
-141 7 0
-141 3 0
141 1 81 21 45 -16 72 64 19 -7 -3 0
-142 59 0
-142 29 0
-142 -89 0
-142 19 0
-142 -33 0
-142 -30 0
-142 -35 0
-142 27 0
-142 -60 0
-142 -39 0
142 -59 -29 89 -19 33 30 35 -27 60 39 0
-143 68 0
-143 -6 0
-143 -80 0
-143 32 0
-143 -10 0
-143 50 0
-143 52 0
-143 -1 0
-143 74 0
-143 14 0
143 -68 6 80 -32 10 -50 -52 1 -74 -14 0
-144 88 0
-144 78 0
-144 -32 0
-144 60 0
-144 94 0
-144 25 0
-144 -68 0
-144 -56 0
-144 37 0
-144 -59 0
144 -88 -78 32 -60 -94 -25 68 56 -37 59 0
-145 73 0
-145 -19 0
-145 -95 0
-145 -15 0
-145 -74 0
-145 -20 0
-145 26 0
-145 17 0
-145 -11 0
-145 70 0
145 -73 19 95 15 74 20 -26 -17 11 -70 0
-146 -59 0
-146 55 0
-146 -84 0
-146 -63 0
-146 -89 0
-146 -32 0
-146 25 0
-146 -90 0
-146 8 0
-146 -67 0
146 59 -55 84 63 89 32 -25 90 -8 67 0
-147 -63 0
-147 1 0
-147 -74 0
-147 -92 0
-147 73 0
-147 100 0
-147 99 0
-147 2 0
-147 -3 0
-147 15 0
147 63 -1 74 92 -73 -100 -99 -2 3 -15 0
-148 -30 0
-148 -81 0
-148 83 0
-148 79 0
-148 61 0
-148 70 0
-148 -26 0
-148 -41 0
-148 69 0
-148 -46 0
148 30 81 -83 -79 -61 -70 26 41 -69 46 0
-149 -90 0
-149 -57 0
-149 34 0
-149 -50 0
-149 71 0
-149 16 0
-149 -31 0
-149 -45 0
-149 8 0
-149 2 0
149 90 57 -34 50 -71 -16 31 45 -8 -2 0
-150 40 0
-150 -35 0
-150 22 0
-150 97 0
-150 -9 0
-150 -19 0
-150 -14 0
-150 99 0
-150 53 0
-150 -34 0
150 -40 35 -22 -97 9 19 14 -99 -53 34 0
141 142 143 144 145 146 147 148 149 150 0
-151 -15 0
-151 -96 0
-151 -41 0
-151 75 0
-151 61 0
-151 -11 0
-151 37 0
-151 52 0
-151 -79 0
-151 -22 0
151 15 96 41 -75 -61 11 -37 -52 79 22 0
-152 -26 0
-152 33 0
-152 20 0
-152 -79 0
-152 -36 0
-152 -8 0
-152 1 0
-152 -39 0
-152 66 0
-152 -89 0
152 26 -33 -20 79 36 8 -1 39 -66 89 0
-153 -58 0
-153 77 0
-153 -68 0
-153 39 0
-153 -7 0
-153 11 0
-153 3 0
-153 -15 0
-153 -23 0
-153 -57 0
153 58 -77 68 -39 7 -11 -3 15 23 57 0
-154 68 0
-154 50 0
-154 -4 0
-154 35 0
-154 -17 0
-154 7 0
-154 -12 0
-154 95 0
-154 -85 0
-154 74 0
154 -68 -50 4 -35 17 -7 12 -95 85 -74 0
-155 -26 0
-155 -84 0
-155 -100 0
-155 -69 0
-155 -86 0
-155 44 0
-155 76 0
-155 78 0
-155 -32 0
-155 66 0
155 26 84 100 69 86 -44 -76 -78 32 -66 0
-156 80 0
-156 -82 0
-156 85 0
-156 -12 0
-156 -89 0
-156 -60 0
-156 79 0
-156 -61 0
-156 -63 0
-156 64 0
156 -80 82 -85 12 89 60 -79 61 63 -64 0
-157 97 0
-157 63 0
-157 -4 0
-157 -36 0
-157 96 0
-157 42 0
-157 93 0
-157 41 0
-157 24 0
-157 -31 0
157 -97 -63 4 36 -96 -42 -93 -41 -24 31 0
-158 -91 0
-158 18 0
-158 8 0
-158 -14 0
-158 -55 0
-158 39 0
-158 -84 0
-158 -44 0
-158 65 0
-158 -63 0
158 91 -18 -8 14 55 -39 84 44 -65 63 0
-159 -78 0
-159 -9 0
-159 -16 0
-159 -90 0
-159 -8 0
-159 10 0
-159 -39 0
-159 -79 0
-159 67 0
-159 -99 0
159 78 9 16 90 8 -10 39 79 -67 99 0
-160 -49 0
-160 -6 0
-160 95 0
-160 70 0
-160 -74 0
-160 -75 0
-160 24 0
-160 -22 0
-160 87 0
-160 -1 0
160 49 6 -95 -70 74 75 -24 22 -87 1 0
151 152 153 154 155 156 157 158 159 160 0
-161 62 0
-161 -36 0
-161 -81 0
-161 -4 0
-161 -57 0
-161 -68 0
-161 -7 0
-161 31 0
-161 33 0
-161 -9 0
161 -62 36 81 4 57 68 7 -31 -33 9 0
-162 -43 0
-162 53 0
-162 51 0
-162 -20 0
-162 -44 0
-162 -63 0
-162 -5 0
-162 61 0
-162 -94 0
-162 84 0
162 43 -53 -51 20 44 63 5 -61 94 -84 0
-163 54 0
-163 -86 0
-163 92 0
-163 47 0
-163 51 0
-163 -48 0
-163 8 0
-163 -28 0
-163 83 0
-163 -85 0
163 -54 86 -92 -47 -51 48 -8 28 -83 85 0
-164 -70 0
-164 52 0
-164 -83 0
-164 -33 0
-164 -97 0
-164 48 0
-164 -5 0
-164 -99 0
-164 60 0
-164 53 0
164 70 -52 83 33 97 -48 5 99 -60 -53 0
-165 73 0
-165 -33 0
-165 -90 0
-165 97 0
-165 35 0
-165 -92 0
-165 -1 0
-165 63 0
-165 46 0
-165 -11 0
165 -73 33 90 -97 -35 92 1 -63 -46 11 0
-166 99 0
-166 -15 0
-166 -24 0
-166 -20 0
-166 -51 0
-166 66 0
-166 -11 0
-166 -59 0
-166 -64 0
-166 88 0
166 -99 15 24 20 51 -66 11 59 64 -88 0
-167 88 0
-167 92 0
-167 34 0
-167 -12 0
-167 -83 0
-167 37 0
-167 14 0
-167 -42 0
-167 41 0
-167 -25 0
167 -88 -92 -34 12 83 -37 -14 42 -41 25 0
-168 90 0
-168 57 0
-168 48 0
-168 86 0
-168 -50 0
-168 -40 0
-168 22 0
-168 -99 0
-168 -68 0
-168 64 0
168 -90 -57 -48 -86 50 40 -22 99 68 -64 0
-169 -66 0
-169 -50 0
-169 -12 0
-169 -28 0
-169 21 0
-169 11 0
-169 52 0
-169 -96 0
-169 58 0
-169 98 0
169 66 50 12 28 -21 -11 -52 96 -58 -98 0
-170 -65 0
-170 -90 0
-170 25 0
-170 -48 0
-170 99 0
-170 11 0
-170 -19 0
-170 -42 0
-170 96 0
-170 -66 0
170 65 90 -25 48 -99 -11 19 42 -96 66 0
161 162 163 164 165 166 167 168 169 170 0
-171 72 0
-171 -24 0
-171 -54 0
-171 -20 0
-171 69 0
-171 -83 0
-171 67 0
-171 -56 0
-171 -81 0
-171 18 0
171 -72 24 54 20 -69 83 -67 56 81 -18 0
-172 -2 0
-172 75 0
-172 -61 0
-172 74 0
-172 47 0
-172 -26 0
-172 48 0
-172 -83 0
-172 51 0
-172 -44 0
172 2 -75 61 -74 -47 26 -48 83 -51 44 0
-173 -77 0
-173 18 0
-173 -63 0
-173 96 0
-173 -79 0
-173 4 0
-173 -72 0
-173 86 0
-173 88 0
-173 -45 0
173 77 -18 63 -96 79 -4 72 -86 -88 45 0
-174 48 0
-174 -90 0
-174 75 0
-174 1 0
-174 31 0
-174 28 0
-174 -72 0
-174 3 0
-174 -10 0
-174 33 0
174 -48 90 -75 -1 -31 -28 72 -3 10 -33 0
-175 -7 0
-175 88 0
-175 28 0
-175 80 0
-175 12 0
-175 -55 0
-175 -3 0
-175 70 0
-175 -16 0
-175 24 0
175 7 -88 -28 -80 -12 55 3 -70 16 -24 0
-176 -63 0
-176 96 0
-176 78 0
-176 68 0
-176 -54 0
-176 -52 0
-176 51 0
-176 90 0
-176 -97 0
-176 -44 0
176 63 -96 -78 -68 54 52 -51 -90 97 44 0
-177 -22 0
-177 -65 0
-177 -9 0
-177 85 0
-177 -25 0
-177 -31 0
-177 34 0
-177 -73 0
-177 -81 0
-177 39 0
177 22 65 9 -85 25 31 -34 73 81 -39 0
-178 31 0
-178 -5 0
-178 1 0
-178 -99 0
-178 -55 0
-178 -15 0
-178 -58 0
-178 85 0
-178 65 0
-178 8 0
178 -31 5 -1 99 55 15 58 -85 -65 -8 0
-179 84 0
-179 -14 0
-179 -100 0
-179 38 0
-179 -67 0
-179 -74 0
-179 43 0
-179 -15 0
-179 2 0
-179 -81 0
179 -84 14 100 -38 67 74 -43 15 -2 81 0
-180 -26 0
-180 12 0
-180 52 0
-180 77 0
-180 31 0
-180 91 0
-180 -93 0
-180 -29 0
-180 33 0
-180 4 0
180 26 -12 -52 -77 -31 -91 93 29 -33 -4 0
171 172 173 174 175 176 177 178 179 180 0
-181 -18 0
-181 44 0
-181 2 0
-181 -100 0
-181 54 0
-181 30 0
-181 98 0
-181 74 0
-181 77 0
-181 95 0
181 18 -44 -2 100 -54 -30 -98 -74 -77 -95 0
-182 -70 0
-182 56 0
-182 -8 0
-182 43 0
-182 -47 0
-182 16 0
-182 10 0
-182 -19 0
-182 53 0
-182 63 0
182 70 -56 8 -43 47 -16 -10 19 -53 -63 0
-183 -91 0
-183 14 0
-183 54 0
-183 -38 0
-183 28 0
-183 -94 0
-183 -22 0
-183 83 0
-183 61 0
-183 99 0
183 91 -14 -54 38 -28 94 22 -83 -61 -99 0
-184 16 0
-184 68 0
-184 -77 0
-184 -7 0
-184 3 0
-184 67 0
-184 -53 0
-184 40 0
-184 -38 0
-184 88 0
184 -16 -68 77 7 -3 -67 53 -40 38 -88 0
-185 -73 0
-185 -32 0
-185 81 0
-185 -38 0
-185 13 0
-185 -24 0
-185 -33 0
-185 9 0
-185 -12 0
-185 16 0
185 73 32 -81 38 -13 24 33 -9 12 -16 0
-186 -95 0
-186 97 0
-186 -16 0
-186 28 0
-186 40 0
-186 45 0
-186 -79 0
-186 -46 0
-186 30 0
-186 -20 0
186 95 -97 16 -28 -40 -45 79 46 -30 20 0
-187 -31 0
-187 56 0
-187 -5 0
-187 -75 0
-187 -3 0
-187 30 0
-187 74 0
-187 -4 0
-187 27 0
-187 -62 0
187 31 -56 5 75 3 -30 -74 4 -27 62 0
-188 7 0
-188 52 0
-188 -83 0
-188 2 0
-188 -1 0
-188 30 0
-188 88 0
-188 -57 0
-188 4 0
-188 -97 0
188 -7 -52 83 -2 1 -30 -88 57 -4 97 0
-189 21 0
-189 77 0
-189 -10 0
-189 -41 0
-189 -3 0
-189 46 0
-189 -48 0
-189 -90 0
-189 61 0
-189 -81 0
189 -21 -77 10 41 3 -46 48 90 -61 81 0
-190 -26 0
-190 39 0
-190 64 0
-190 18 0
-190 55 0
-190 72 0
-190 87 0
-190 -73 0
-190 46 0
-190 35 0
190 26 -39 -64 -18 -55 -72 -87 73 -46 -35 0
181 182 183 184 185 186 187 188 189 190 0
-191 30 0
-191 66 0
-191 -88 0
-191 98 0
-191 42 0
-191 -86 0
-191 20 0
-191 -8 0
-191 49 0
-191 -84 0
191 -30 -66 88 -98 -42 86 -20 8 -49 84 0
-192 -97 0
-192 -93 0
-192 96 0
-192 -77 0
-192 75 0
-192 -98 0
-192 6 0
-192 61 0
-192 57 0
-192 8 0
192 97 93 -96 77 -75 98 -6 -61 -57 -8 0
-193 -37 0
-193 100 0
-193 78 0
-193 -34 0
-193 74 0
-193 76 0
-193 -93 0
-193 73 0
-193 57 0
-193 -77 0
193 37 -100 -78 34 -74 -76 93 -73 -57 77 0
-194 -6 0
-194 26 0
-194 98 0
-194 -55 0
-194 -70 0
-194 59 0
-194 -96 0
-194 7 0
-194 21 0
-194 58 0
194 6 -26 -98 55 70 -59 96 -7 -21 -58 0
-195 77 0
-195 98 0
-195 3 0
-195 55 0
-195 63 0
-195 -60 0
-195 -86 0
-195 14 0
-195 -68 0
-195 -37 0
195 -77 -98 -3 -55 -63 60 86 -14 68 37 0
-196 97 0
-196 98 0
-196 86 0
-196 -15 0
-196 65 0
-196 -31 0
-196 -4 0
-196 -45 0
-196 -38 0
-196 72 0
196 -97 -98 -86 15 -65 31 4 45 38 -72 0
-197 95 0
-197 -34 0
-197 5 0
-197 -25 0
-197 45 0
-197 -23 0
-197 28 0
-197 -98 0
-197 73 0
-197 72 0
197 -95 34 -5 25 -45 23 -28 98 -73 -72 0
-198 -40 0
-198 -37 0
-198 7 0
-198 -91 0
-198 -94 0
-198 -84 0
-198 -16 0
-198 -15 0
-198 70 0
-198 -24 0
198 40 37 -7 91 94 84 16 15 -70 24 0
-199 12 0
-199 14 0
-199 75 0
-199 54 0
-199 -3 0
-199 -66 0
-199 -64 0
-199 -73 0
-199 -96 0
-199 43 0
199 -12 -14 -75 -54 3 66 64 73 96 -43 0
-200 -79 0
-200 -74 0
-200 12 0
-200 -15 0
-200 6 0
-200 -22 0
-200 -31 0
-200 52 0
-200 -32 0
-200 99 0
200 79 74 -12 15 -6 22 31 -52 32 -99 0
191 192 193 194 195 196 197 198 199 200 0
